c Reduced graph for GEOM70b_0 generated by Cyril Grelier
p edge 68 479
e 1 2
e 1 3
e 1 4
e 1 5
e 1 6
e 1 7
e 1 8
e 1 9
e 1 10
e 1 11
e 1 12
e 1 14
e 1 15
e 1 16
e 1 19
e 1 21
e 1 22
e 1 23
e 1 25
e 1 32
e 1 33
e 1 37
e 1 40
e 1 41
e 2 6
e 2 7
e 2 9
e 2 10
e 2 11
e 2 12
e 2 13
e 2 15
e 2 16
e 2 18
e 2 19
e 2 21
e 2 26
e 2 27
e 2 28
e 2 30
e 2 34
e 2 38
e 2 39
e 2 49
e 3 4
e 3 5
e 3 6
e 3 7
e 3 8
e 3 14
e 3 22
e 3 23
e 3 25
e 3 29
e 3 32
e 3 33
e 3 37
e 3 43
e 3 45
e 3 50
e 3 56
e 3 57
e 3 63
e 4 5
e 4 6
e 4 7
e 4 8
e 4 11
e 4 14
e 4 21
e 4 22
e 4 23
e 4 25
e 4 29
e 4 32
e 4 33
e 4 37
e 4 40
e 4 41
e 4 43
e 4 45
e 5 6
e 5 14
e 5 22
e 5 23
e 5 25
e 5 29
e 5 32
e 5 33
e 5 37
e 5 40
e 5 41
e 5 43
e 5 45
e 5 50
e 5 56
e 5 57
e 5 63
e 6 7
e 6 8
e 6 9
e 6 11
e 6 12
e 6 14
e 6 15
e 6 17
e 6 21
e 6 22
e 6 23
e 6 25
e 6 32
e 6 33
e 6 37
e 7 8
e 7 9
e 7 10
e 7 11
e 7 12
e 7 13
e 7 14
e 7 15
e 7 16
e 7 17
e 7 19
e 7 20
e 7 21
e 7 22
e 7 25
e 8 9
e 8 11
e 8 12
e 8 15
e 8 17
e 8 20
e 8 21
e 8 22
e 8 24
e 8 25
e 8 35
e 8 37
e 8 42
e 8 57
e 9 10
e 9 11
e 9 12
e 9 13
e 9 15
e 9 16
e 9 18
e 9 19
e 9 21
e 9 30
e 9 31
e 9 36
e 9 39
e 9 44
e 10 11
e 10 12
e 10 13
e 10 15
e 10 16
e 10 18
e 10 19
e 10 21
e 10 26
e 10 27
e 10 28
e 10 30
e 10 34
e 10 39
e 10 49
e 11 12
e 11 13
e 11 14
e 11 15
e 11 16
e 11 17
e 11 18
e 11 19
e 11 20
e 11 21
e 11 30
e 12 13
e 12 15
e 12 17
e 12 20
e 12 21
e 12 24
e 12 30
e 12 31
e 12 36
e 12 42
e 12 44
e 13 15
e 13 16
e 13 18
e 13 19
e 13 26
e 13 27
e 13 28
e 13 34
e 13 38
e 13 39
e 13 46
e 13 49
e 13 61
e 14 22
e 14 23
e 14 25
e 14 29
e 14 32
e 14 33
e 14 40
e 14 41
e 14 43
e 14 45
e 14 50
e 15 16
e 15 18
e 15 19
e 15 21
e 15 30
e 15 31
e 15 36
e 15 39
e 16 18
e 16 19
e 16 26
e 16 27
e 16 28
e 16 34
e 16 38
e 16 40
e 16 46
e 16 49
e 17 20
e 17 21
e 17 22
e 17 24
e 17 25
e 17 35
e 17 37
e 17 42
e 17 51
e 17 53
e 17 54
e 17 58
e 17 59
e 18 19
e 18 26
e 18 27
e 18 28
e 18 34
e 18 38
e 18 39
e 18 46
e 18 49
e 18 60
e 18 61
e 19 26
e 19 27
e 19 28
e 19 34
e 19 38
e 19 40
e 19 46
e 19 49
e 20 21
e 20 24
e 20 31
e 20 35
e 20 42
e 20 44
e 20 47
e 20 48
e 20 51
e 20 52
e 20 53
e 20 58
e 20 59
e 21 24
e 21 30
e 21 31
e 21 42
e 22 23
e 22 25
e 22 29
e 22 35
e 22 37
e 22 42
e 22 54
e 22 57
e 23 25
e 23 29
e 23 37
e 23 45
e 23 50
e 23 54
e 23 56
e 23 57
e 23 63
e 24 31
e 24 35
e 24 42
e 24 47
e 24 48
e 24 51
e 24 52
e 24 53
e 24 54
e 24 58
e 24 59
e 25 29
e 25 35
e 25 37
e 25 54
e 25 57
e 26 27
e 26 28
e 26 32
e 26 33
e 26 34
e 26 38
e 26 40
e 26 41
e 26 46
e 26 60
e 27 28
e 27 34
e 27 38
e 27 39
e 27 46
e 27 49
e 27 60
e 27 61
e 28 34
e 28 38
e 28 40
e 28 41
e 28 46
e 28 60
e 28 61
e 29 33
e 29 37
e 29 43
e 29 45
e 29 50
e 29 56
e 29 57
e 29 63
e 30 31
e 30 36
e 30 39
e 30 44
e 30 47
e 30 48
e 30 55
e 30 64
e 31 36
e 31 44
e 31 47
e 31 48
e 31 52
e 31 55
e 31 62
e 31 66
e 32 33
e 32 38
e 32 40
e 32 41
e 32 43
e 32 45
e 32 50
e 32 56
e 33 40
e 33 41
e 33 43
e 33 45
e 33 50
e 33 56
e 34 38
e 34 46
e 34 49
e 34 60
e 34 61
e 35 37
e 35 42
e 35 51
e 35 53
e 35 54
e 35 57
e 35 58
e 35 59
e 36 39
e 36 44
e 36 47
e 36 48
e 36 55
e 36 62
e 36 64
e 36 65
e 36 67
e 37 54
e 37 57
e 38 40
e 38 41
e 38 46
e 38 60
e 39 49
e 39 55
e 39 65
e 39 68
e 40 41
e 40 43
e 41 43
e 41 45
e 41 50
e 42 51
e 42 53
e 42 54
e 42 58
e 42 59
e 43 45
e 43 50
e 43 56
e 43 63
e 44 47
e 44 48
e 44 52
e 44 55
e 44 62
e 44 64
e 44 66
e 45 50
e 45 56
e 45 63
e 46 49
e 46 60
e 46 61
e 47 48
e 47 51
e 47 52
e 47 55
e 47 62
e 47 66
e 48 51
e 48 52
e 48 53
e 48 62
e 48 66
e 49 61
e 49 68
e 50 56
e 50 63
e 51 52
e 51 53
e 51 58
e 51 59
e 52 53
e 52 58
e 52 62
e 52 66
e 53 58
e 53 59
e 54 57
e 54 59
e 55 62
e 55 64
e 55 65
e 55 67
e 56 63
e 58 59
e 60 61
e 62 66
e 64 65
e 64 67
e 65 67
e 65 68
e 67 68
